(declare-const X String)
; (@\s*".*?")|("([^"\\]|\\.)*?")
(assert (not (str.in_re X (re.union (re.++ (str.to_re "@") (re.* (re.union (str.to_re " ") (str.to_re "\u{9}") (str.to_re "\u{a}") (str.to_re "\u{c}") (str.to_re "\u{d}"))) (str.to_re "\u{22}") (re.* re.allchar) (str.to_re "\u{22}")) (re.++ (str.to_re "\u{a}\u{22}") (re.* (re.union (re.++ (str.to_re "\u{5c}") re.allchar) (str.to_re "\u{22}") (str.to_re "\u{5c}"))) (str.to_re "\u{22}"))))))
; www\x2Elookster\x2Enetnotificationuuid=qisezhin\x2fiqor\.ym
(assert (str.in_re X (str.to_re "www.lookster.netnotification\u{13}uuid=qisezhin/iqor.ym\u{13}\u{a}")))
; for\x2Fproducts\x2Fspyblocs\x2FHost\x3Aocllceclbhs\x2fgth
(assert (str.in_re X (str.to_re "for/products/spyblocs/\u{13}Host:ocllceclbhs/gth\u{a}")))
; ^((00|\+)49)?(0?[2-9][0-9]{1,})$
(assert (not (str.in_re X (re.++ (re.opt (re.++ (re.union (str.to_re "00") (str.to_re "+")) (str.to_re "49"))) (str.to_re "\u{a}") (re.opt (str.to_re "0")) (re.range "2" "9") (re.+ (re.range "0" "9"))))))
(check-sat)

(exit)
